33D32945 STP File, STP Format Version 1.0

SECTION Comment
Name    "i080-021"
Creator "Cees Duin"
Remark  "Incidence graph"
END

SECTION Graph
Nodes 80
Edges 3160
E 1 2 297
E 1 3 299
E 1 4 298
E 1 5 287
E 1 6 297
E 1 7 204
E 1 8 200
E 1 9 196
E 1 10 205
E 1 11 206
E 1 12 192
E 1 13 207
E 1 14 205
E 1 15 209
E 1 16 202
E 1 17 201
E 1 18 203
E 1 19 198
E 1 20 205
E 1 21 205
E 1 22 196
E 1 23 190
E 1 24 195
E 1 25 194
E 1 26 199
E 1 27 199
E 1 28 203
E 1 29 195
E 1 30 206
E 1 31 214
E 1 32 190
E 1 33 198
E 1 34 195
E 1 35 201
E 1 36 203
E 1 37 195
E 1 38 191
E 1 39 203
E 1 40 196
E 1 41 192
E 1 42 206
E 1 43 196
E 1 44 200
E 1 45 205
E 1 46 202
E 1 47 200
E 1 48 194
E 1 49 203
E 1 50 198
E 1 51 197
E 1 52 201
E 1 53 210
E 1 54 192
E 1 55 202
E 1 56 208
E 1 57 199
E 1 58 201
E 1 59 201
E 1 60 196
E 1 61 208
E 1 62 196
E 1 63 208
E 1 64 199
E 1 65 195
E 1 66 201
E 1 67 197
E 1 68 197
E 1 69 203
E 1 70 203
E 1 71 199
E 1 72 210
E 1 73 194
E 1 74 195
E 1 75 202
E 1 76 203
E 1 77 201
E 1 78 205
E 1 79 209
E 1 80 204
E 2 3 298
E 2 4 302
E 2 5 306
E 2 6 298
E 2 7 197
E 2 8 203
E 2 9 209
E 2 10 199
E 2 11 203
E 2 12 198
E 2 13 197
E 2 14 209
E 2 15 199
E 2 16 197
E 2 17 188
E 2 18 201
E 2 19 207
E 2 20 198
E 2 21 200
E 2 22 196
E 2 23 189
E 2 24 193
E 2 25 203
E 2 26 198
E 2 27 191
E 2 28 198
E 2 29 203
E 2 30 197
E 2 31 199
E 2 32 200
E 2 33 204
E 2 34 202
E 2 35 192
E 2 36 195
E 2 37 198
E 2 38 200
E 2 39 201
E 2 40 207
E 2 41 201
E 2 42 198
E 2 43 195
E 2 44 197
E 2 45 199
E 2 46 190
E 2 47 201
E 2 48 199
E 2 49 201
E 2 50 204
E 2 51 201
E 2 52 202
E 2 53 200
E 2 54 204
E 2 55 195
E 2 56 215
E 2 57 195
E 2 58 203
E 2 59 203
E 2 60 203
E 2 61 201
E 2 62 205
E 2 63 187
E 2 64 206
E 2 65 196
E 2 66 195
E 2 67 203
E 2 68 200
E 2 69 191
E 2 70 201
E 2 71 196
E 2 72 200
E 2 73 195
E 2 74 191
E 2 75 194
E 2 76 192
E 2 77 196
E 2 78 198
E 2 79 197
E 2 80 192
E 3 4 310
E 3 5 293
E 3 6 303
E 3 7 200
E 3 8 197
E 3 9 198
E 3 10 195
E 3 11 198
E 3 12 206
E 3 13 196
E 3 14 196
E 3 15 195
E 3 16 198
E 3 17 198
E 3 18 199
E 3 19 201
E 3 20 203
E 3 21 204
E 3 22 203
E 3 23 197
E 3 24 200
E 3 25 194
E 3 26 198
E 3 27 195
E 3 28 196
E 3 29 200
E 3 30 198
E 3 31 191
E 3 32 199
E 3 33 195
E 3 34 196
E 3 35 202
E 3 36 197
E 3 37 200
E 3 38 209
E 3 39 205
E 3 40 197
E 3 41 202
E 3 42 206
E 3 43 199
E 3 44 195
E 3 45 205
E 3 46 202
E 3 47 205
E 3 48 192
E 3 49 204
E 3 50 205
E 3 51 197
E 3 52 188
E 3 53 201
E 3 54 194
E 3 55 198
E 3 56 199
E 3 57 196
E 3 58 200
E 3 59 204
E 3 60 191
E 3 61 201
E 3 62 196
E 3 63 202
E 3 64 203
E 3 65 196
E 3 66 192
E 3 67 206
E 3 68 198
E 3 69 193
E 3 70 206
E 3 71 194
E 3 72 207
E 3 73 202
E 3 74 206
E 3 75 201
E 3 76 201
E 3 77 202
E 3 78 194
E 3 79 192
E 3 80 200
E 4 5 302
E 4 6 306
E 4 7 194
E 4 8 202
E 4 9 200
E 4 10 207
E 4 11 196
E 4 12 203
E 4 13 193
E 4 14 197
E 4 15 198
E 4 16 202
E 4 17 202
E 4 18 201
E 4 19 188
E 4 20 193
E 4 21 192
E 4 22 207
E 4 23 199
E 4 24 203
E 4 25 198
E 4 26 202
E 4 27 203
E 4 28 195
E 4 29 204
E 4 30 199
E 4 31 198
E 4 32 197
E 4 33 193
E 4 34 193
E 4 35 201
E 4 36 202
E 4 37 204
E 4 38 203
E 4 39 195
E 4 40 197
E 4 41 208
E 4 42 204
E 4 43 198
E 4 44 200
E 4 45 195
E 4 46 194
E 4 47 208
E 4 48 201
E 4 49 198
E 4 50 199
E 4 51 198
E 4 52 197
E 4 53 190
E 4 54 205
E 4 55 200
E 4 56 194
E 4 57 200
E 4 58 196
E 4 59 202
E 4 60 203
E 4 61 198
E 4 62 203
E 4 63 204
E 4 64 199
E 4 65 200
E 4 66 202
E 4 67 195
E 4 68 191
E 4 69 202
E 4 70 211
E 4 71 209
E 4 72 196
E 4 73 205
E 4 74 201
E 4 75 195
E 4 76 197
E 4 77 194
E 4 78 196
E 4 79 203
E 4 80 200
E 5 6 296
E 5 7 200
E 5 8 208
E 5 9 197
E 5 10 205
E 5 11 199
E 5 12 196
E 5 13 196
E 5 14 197
E 5 15 198
E 5 16 204
E 5 17 200
E 5 18 190
E 5 19 207
E 5 20 199
E 5 21 201
E 5 22 200
E 5 23 195
E 5 24 203
E 5 25 201
E 5 26 202
E 5 27 197
E 5 28 203
E 5 29 208
E 5 30 196
E 5 31 205
E 5 32 194
E 5 33 199
E 5 34 204
E 5 35 201
E 5 36 192
E 5 37 202
E 5 38 200
E 5 39 195
E 5 40 206
E 5 41 196
E 5 42 191
E 5 43 196
E 5 44 192
E 5 45 213
E 5 46 200
E 5 47 192
E 5 48 203
E 5 49 197
E 5 50 206
E 5 51 201
E 5 52 199
E 5 53 197
E 5 54 203
E 5 55 199
E 5 56 208
E 5 57 198
E 5 58 195
E 5 59 199
E 5 60 198
E 5 61 204
E 5 62 203
E 5 63 199
E 5 64 200
E 5 65 206
E 5 66 204
E 5 67 199
E 5 68 201
E 5 69 200
E 5 70 197
E 5 71 195
E 5 72 198
E 5 73 202
E 5 74 199
E 5 75 201
E 5 76 208
E 5 77 196
E 5 78 200
E 5 79 199
E 5 80 195
E 6 7 204
E 6 8 197
E 6 9 200
E 6 10 199
E 6 11 196
E 6 12 196
E 6 13 202
E 6 14 204
E 6 15 194
E 6 16 200
E 6 17 202
E 6 18 202
E 6 19 202
E 6 20 197
E 6 21 192
E 6 22 200
E 6 23 205
E 6 24 201
E 6 25 199
E 6 26 202
E 6 27 198
E 6 28 200
E 6 29 203
E 6 30 203
E 6 31 199
E 6 32 198
E 6 33 198
E 6 34 204
E 6 35 201
E 6 36 203
E 6 37 192
E 6 38 202
E 6 39 200
E 6 40 211
E 6 41 203
E 6 42 203
E 6 43 204
E 6 44 202
E 6 45 198
E 6 46 203
E 6 47 200
E 6 48 206
E 6 49 209
E 6 50 206
E 6 51 195
E 6 52 197
E 6 53 200
E 6 54 200
E 6 55 203
E 6 56 200
E 6 57 192
E 6 58 201
E 6 59 197
E 6 60 198
E 6 61 185
E 6 62 193
E 6 63 195
E 6 64 201
E 6 65 196
E 6 66 198
E 6 67 195
E 6 68 191
E 6 69 191
E 6 70 189
E 6 71 209
E 6 72 199
E 6 73 198
E 6 74 198
E 6 75 203
E 6 76 204
E 6 77 203
E 6 78 204
E 6 79 195
E 6 80 204
E 7 8 94
E 7 9 97
E 7 10 105
E 7 11 99
E 7 12 93
E 7 13 102
E 7 14 102
E 7 15 95
E 7 16 101
E 7 17 92
E 7 18 102
E 7 19 102
E 7 20 99
E 7 21 93
E 7 22 100
E 7 23 100
E 7 24 103
E 7 25 113
E 7 26 101
E 7 27 101
E 7 28 97
E 7 29 100
E 7 30 100
E 7 31 97
E 7 32 100
E 7 33 104
E 7 34 97
E 7 35 93
E 7 36 98
E 7 37 101
E 7 38 103
E 7 39 113
E 7 40 101
E 7 41 94
E 7 42 108
E 7 43 97
E 7 44 104
E 7 45 102
E 7 46 103
E 7 47 110
E 7 48 102
E 7 49 105
E 7 50 103
E 7 51 94
E 7 52 93
E 7 53 90
E 7 54 103
E 7 55 97
E 7 56 91
E 7 57 107
E 7 58 102
E 7 59 105
E 7 60 100
E 7 61 94
E 7 62 103
E 7 63 101
E 7 64 95
E 7 65 104
E 7 66 93
E 7 67 99
E 7 68 97
E 7 69 94
E 7 70 103
E 7 71 92
E 7 72 94
E 7 73 98
E 7 74 102
E 7 75 103
E 7 76 100
E 7 77 95
E 7 78 91
E 7 79 98
E 7 80 94
E 8 9 93
E 8 10 105
E 8 11 106
E 8 12 91
E 8 13 112
E 8 14 101
E 8 15 96
E 8 16 95
E 8 17 98
E 8 18 89
E 8 19 111
E 8 20 103
E 8 21 109
E 8 22 99
E 8 23 103
E 8 24 96
E 8 25 97
E 8 26 98
E 8 27 100
E 8 28 103
E 8 29 94
E 8 30 105
E 8 31 105
E 8 32 103
E 8 33 102
E 8 34 100
E 8 35 96
E 8 36 102
E 8 37 105
E 8 38 104
E 8 39 91
E 8 40 103
E 8 41 104
E 8 42 96
E 8 43 101
E 8 44 106
E 8 45 95
E 8 46 109
E 8 47 91
E 8 48 96
E 8 49 100
E 8 50 100
E 8 51 97
E 8 52 101
E 8 53 91
E 8 54 96
E 8 55 101
E 8 56 103
E 8 57 97
E 8 58 102
E 8 59 97
E 8 60 93
E 8 61 100
E 8 62 103
E 8 63 101
E 8 64 106
E 8 65 96
E 8 66 90
E 8 67 93
E 8 68 100
E 8 69 103
E 8 70 95
E 8 71 93
E 8 72 100
E 8 73 101
E 8 74 93
E 8 75 102
E 8 76 97
E 8 77 109
E 8 78 102
E 8 79 102
E 8 80 105
E 9 10 86
E 9 11 100
E 9 12 93
E 9 13 107
E 9 14 107
E 9 15 104
E 9 16 103
E 9 17 102
E 9 18 99
E 9 19 96
E 9 20 97
E 9 21 100
E 9 22 98
E 9 23 104
E 9 24 99
E 9 25 101
E 9 26 98
E 9 27 101
E 9 28 105
E 9 29 101
E 9 30 93
E 9 31 104
E 9 32 98
E 9 33 94
E 9 34 100
E 9 35 90
E 9 36 108
E 9 37 105
E 9 38 105
E 9 39 104
E 9 40 103
E 9 41 101
E 9 42 100
E 9 43 96
E 9 44 94
E 9 45 106
E 9 46 99
E 9 47 98
E 9 48 96
E 9 49 105
E 9 50 102
E 9 51 97
E 9 52 100
E 9 53 108
E 9 54 95
E 9 55 94
E 9 56 96
E 9 57 99
E 9 58 101
E 9 59 85
E 9 60 107
E 9 61 102
E 9 62 109
E 9 63 107
E 9 64 106
E 9 65 104
E 9 66 96
E 9 67 107
E 9 68 99
E 9 69 87
E 9 70 94
E 9 71 90
E 9 72 101
E 9 73 103
E 9 74 99
E 9 75 99
E 9 76 98
E 9 77 101
E 9 78 96
E 9 79 104
E 9 80 98
E 10 11 88
E 10 12 94
E 10 13 101
E 10 14 102
E 10 15 102
E 10 16 106
E 10 17 99
E 10 18 102
E 10 19 97
E 10 20 107
E 10 21 99
E 10 22 103
E 10 23 98
E 10 24 106
E 10 25 109
E 10 26 102
E 10 27 101
E 10 28 96
E 10 29 100
E 10 30 96
E 10 31 101
E 10 32 98
E 10 33 95
E 10 34 97
E 10 35 107
E 10 36 89
E 10 37 109
E 10 38 97
E 10 39 102
E 10 40 88
E 10 41 110
E 10 42 102
E 10 43 93
E 10 44 100
E 10 45 99
E 10 46 100
E 10 47 96
E 10 48 101
E 10 49 98
E 10 50 107
E 10 51 103
E 10 52 101
E 10 53 100
E 10 54 95
E 10 55 100
E 10 56 96
E 10 57 101
E 10 58 102
E 10 59 96
E 10 60 96
E 10 61 105
E 10 62 106
E 10 63 105
E 10 64 92
E 10 65 99
E 10 66 100
E 10 67 89
E 10 68 99
E 10 69 109
E 10 70 103
E 10 71 98
E 10 72 98
E 10 73 105
E 10 74 104
E 10 75 98
E 10 76 97
E 10 77 97
E 10 78 103
E 10 79 96
E 10 80 104
E 11 12 98
E 11 13 107
E 11 14 99
E 11 15 104
E 11 16 99
E 11 17 93
E 11 18 100
E 11 19 100
E 11 20 92
E 11 21 108
E 11 22 99
E 11 23 106
E 11 24 97
E 11 25 107
E 11 26 103
E 11 27 107
E 11 28 94
E 11 29 101
E 11 30 92
E 11 31 104
E 11 32 91
E 11 33 92
E 11 34 96
E 11 35 99
E 11 36 96
E 11 37 106
E 11 38 100
E 11 39 98
E 11 40 98
E 11 41 105
E 11 42 107
E 11 43 97
E 11 44 94
E 11 45 93
E 11 46 96
E 11 47 100
E 11 48 101
E 11 49 102
E 11 50 97
E 11 51 97
E 11 52 102
E 11 53 101
E 11 54 102
E 11 55 105
E 11 56 97
E 11 57 105
E 11 58 92
E 11 59 95
E 11 60 109
E 11 61 102
E 11 62 101
E 11 63 100
E 11 64 108
E 11 65 94
E 11 66 94
E 11 67 102
E 11 68 102
E 11 69 96
E 11 70 104
E 11 71 101
E 11 72 101
E 11 73 94
E 11 74 103
E 11 75 101
E 11 76 103
E 11 77 102
E 11 78 97
E 11 79 100
E 11 80 103
E 12 13 100
E 12 14 108
E 12 15 94
E 12 16 93
E 12 17 94
E 12 18 90
E 12 19 98
E 12 20 97
E 12 21 102
E 12 22 92
E 12 23 91
E 12 24 93
E 12 25 104
E 12 26 101
E 12 27 104
E 12 28 95
E 12 29 95
E 12 30 100
E 12 31 99
E 12 32 102
E 12 33 97
E 12 34 92
E 12 35 98
E 12 36 93
E 12 37 103
E 12 38 96
E 12 39 97
E 12 40 104
E 12 41 99
E 12 42 92
E 12 43 92
E 12 44 106
E 12 45 99
E 12 46 107
E 12 47 103
E 12 48 102
E 12 49 99
E 12 50 99
E 12 51 106
E 12 52 93
E 12 53 89
E 12 54 96
E 12 55 100
E 12 56 96
E 12 57 98
E 12 58 105
E 12 59 109
E 12 60 98
E 12 61 102
E 12 62 106
E 12 63 97
E 12 64 105
E 12 65 93
E 12 66 100
E 12 67 99
E 12 68 101
E 12 69 98
E 12 70 104
E 12 71 92
E 12 72 102
E 12 73 95
E 12 74 96
E 12 75 97
E 12 76 100
E 12 77 103
E 12 78 102
E 12 79 87
E 12 80 96
E 13 14 99
E 13 15 107
E 13 16 94
E 13 17 95
E 13 18 95
E 13 19 104
E 13 20 99
E 13 21 98
E 13 22 107
E 13 23 104
E 13 24 99
E 13 25 88
E 13 26 102
E 13 27 111
E 13 28 99
E 13 29 98
E 13 30 103
E 13 31 95
E 13 32 109
E 13 33 108
E 13 34 108
E 13 35 87
E 13 36 90
E 13 37 105
E 13 38 100
E 13 39 104
E 13 40 104
E 13 41 106
E 13 42 100
E 13 43 94
E 13 44 107
E 13 45 102
E 13 46 99
E 13 47 102
E 13 48 103
E 13 49 107
E 13 50 97
E 13 51 96
E 13 52 101
E 13 53 106
E 13 54 101
E 13 55 101
E 13 56 103
E 13 57 109
E 13 58 104
E 13 59 103
E 13 60 99
E 13 61 99
E 13 62 108
E 13 63 100
E 13 64 106
E 13 65 95
E 13 66 97
E 13 67 104
E 13 68 95
E 13 69 100
E 13 70 93
E 13 71 99
E 13 72 107
E 13 73 103
E 13 74 93
E 13 75 95
E 13 76 100
E 13 77 104
E 13 78 91
E 13 79 97
E 13 80 94
E 14 15 102
E 14 16 94
E 14 17 111
E 14 18 105
E 14 19 101
E 14 20 93
E 14 21 102
E 14 22 97
E 14 23 103
E 14 24 99
E 14 25 96
E 14 26 103
E 14 27 96
E 14 28 103
E 14 29 105
E 14 30 98
E 14 31 101
E 14 32 100
E 14 33 99
E 14 34 108
E 14 35 105
E 14 36 103
E 14 37 101
E 14 38 99
E 14 39 110
E 14 40 94
E 14 41 99
E 14 42 105
E 14 43 95
E 14 44 105
E 14 45 105
E 14 46 86
E 14 47 94
E 14 48 106
E 14 49 97
E 14 50 100
E 14 51 101
E 14 52 107
E 14 53 99
E 14 54 99
E 14 55 95
E 14 56 101
E 14 57 85
E 14 58 105
E 14 59 107
E 14 60 96
E 14 61 97
E 14 62 103
E 14 63 106
E 14 64 88
E 14 65 98
E 14 66 95
E 14 67 96
E 14 68 103
E 14 69 91
E 14 70 99
E 14 71 93
E 14 72 94
E 14 73 100
E 14 74 102
E 14 75 101
E 14 76 103
E 14 77 112
E 14 78 100
E 14 79 96
E 14 80 111
E 15 16 104
E 15 17 100
E 15 18 96
E 15 19 99
E 15 20 99
E 15 21 90
E 15 22 104
E 15 23 101
E 15 24 103
E 15 25 102
E 15 26 94
E 15 27 106
E 15 28 94
E 15 29 92
E 15 30 93
E 15 31 95
E 15 32 104
E 15 33 100
E 15 34 101
E 15 35 98
E 15 36 102
E 15 37 98
E 15 38 87
E 15 39 96
E 15 40 91
E 15 41 91
E 15 42 98
E 15 43 95
E 15 44 105
E 15 45 96
E 15 46 96
E 15 47 94
E 15 48 102
E 15 49 92
E 15 50 88
E 15 51 92
E 15 52 98
E 15 53 97
E 15 54 92
E 15 55 99
E 15 56 106
E 15 57 96
E 15 58 103
E 15 59 109
E 15 60 101
E 15 61 106
E 15 62 92
E 15 63 97
E 15 64 102
E 15 65 94
E 15 66 107
E 15 67 103
E 15 68 98
E 15 69 92
E 15 70 92
E 15 71 101
E 15 72 91
E 15 73 102
E 15 74 94
E 15 75 102
E 15 76 98
E 15 77 94
E 15 78 102
E 15 79 105
E 15 80 103
E 16 17 96
E 16 18 100
E 16 19 102
E 16 20 104
E 16 21 96
E 16 22 102
E 16 23 100
E 16 24 103
E 16 25 108
E 16 26 100
E 16 27 102
E 16 28 95
E 16 29 99
E 16 30 104
E 16 31 97
E 16 32 93
E 16 33 93
E 16 34 95
E 16 35 97
E 16 36 101
E 16 37 102
E 16 38 106
E 16 39 100
E 16 40 91
E 16 41 93
E 16 42 112
E 16 43 97
E 16 44 99
E 16 45 103
E 16 46 95
E 16 47 103
E 16 48 102
E 16 49 97
E 16 50 103
E 16 51 89
E 16 52 103
E 16 53 97
E 16 54 100
E 16 55 100
E 16 56 97
E 16 57 108
E 16 58 98
E 16 59 102
E 16 60 98
E 16 61 100
E 16 62 94
E 16 63 99
E 16 64 109
E 16 65 101
E 16 66 95
E 16 67 100
E 16 68 95
E 16 69 103
E 16 70 96
E 16 71 96
E 16 72 105
E 16 73 100
E 16 74 96
E 16 75 105
E 16 76 100
E 16 77 93
E 16 78 99
E 16 79 103
E 16 80 103
E 17 18 94
E 17 19 107
E 17 20 96
E 17 21 98
E 17 22 108
E 17 23 96
E 17 24 103
E 17 25 99
E 17 26 95
E 17 27 99
E 17 28 101
E 17 29 105
E 17 30 101
E 17 31 95
E 17 32 100
E 17 33 94
E 17 34 103
E 17 35 94
E 17 36 110
E 17 37 105
E 17 38 98
E 17 39 102
E 17 40 101
E 17 41 106
E 17 42 104
E 17 43 100
E 17 44 101
E 17 45 99
E 17 46 95
E 17 47 96
E 17 48 105
E 17 49 92
E 17 50 100
E 17 51 99
E 17 52 106
E 17 53 100
E 17 54 97
E 17 55 93
E 17 56 95
E 17 57 99
E 17 58 102
E 17 59 99
E 17 60 109
E 17 61 104
E 17 62 98
E 17 63 106
E 17 64 87
E 17 65 100
E 17 66 100
E 17 67 95
E 17 68 95
E 17 69 102
E 17 70 90
E 17 71 87
E 17 72 90
E 17 73 103
E 17 74 94
E 17 75 100
E 17 76 95
E 17 77 103
E 17 78 109
E 17 79 104
E 17 80 98
E 18 19 106
E 18 20 90
E 18 21 100
E 18 22 100
E 18 23 97
E 18 24 96
E 18 25 100
E 18 26 99
E 18 27 107
E 18 28 107
E 18 29 97
E 18 30 95
E 18 31 114
E 18 32 105
E 18 33 94
E 18 34 104
E 18 35 96
E 18 36 106
E 18 37 103
E 18 38 91
E 18 39 97
E 18 40 97
E 18 41 108
E 18 42 104
E 18 43 93
E 18 44 104
E 18 45 94
E 18 46 104
E 18 47 100
E 18 48 99
E 18 49 101
E 18 50 97
E 18 51 94
E 18 52 94
E 18 53 88
E 18 54 106
E 18 55 107
E 18 56 104
E 18 57 98
E 18 58 101
E 18 59 97
E 18 60 95
E 18 61 99
E 18 62 96
E 18 63 102
E 18 64 102
E 18 65 109
E 18 66 100
E 18 67 96
E 18 68 104
E 18 69 103
E 18 70 102
E 18 71 100
E 18 72 102
E 18 73 96
E 18 74 101
E 18 75 85
E 18 76 103
E 18 77 103
E 18 78 102
E 18 79 101
E 18 80 87
E 19 20 100
E 19 21 106
E 19 22 98
E 19 23 97
E 19 24 97
E 19 25 95
E 19 26 107
E 19 27 93
E 19 28 100
E 19 29 85
E 19 30 95
E 19 31 100
E 19 32 92
E 19 33 101
E 19 34 99
E 19 35 100
E 19 36 104
E 19 37 94
E 19 38 102
E 19 39 87
E 19 40 98
E 19 41 97
E 19 42 98
E 19 43 103
E 19 44 100
E 19 45 106
E 19 46 93
E 19 47 97
E 19 48 101
E 19 49 101
E 19 50 98
E 19 51 107
E 19 52 106
E 19 53 103
E 19 54 104
E 19 55 96
E 19 56 93
E 19 57 95
E 19 58 99
E 19 59 95
E 19 60 104
E 19 61 105
E 19 62 93
E 19 63 96
E 19 64 102
E 19 65 97
E 19 66 104
E 19 67 101
E 19 68 108
E 19 69 98
E 19 70 100
E 19 71 93
E 19 72 100
E 19 73 102
E 19 74 97
E 19 75 96
E 19 76 95
E 19 77 97
E 19 78 96
E 19 79 99
E 19 80 94
E 20 21 101
E 20 22 103
E 20 23 104
E 20 24 104
E 20 25 106
E 20 26 110
E 20 27 94
E 20 28 94
E 20 29 103
E 20 30 101
E 20 31 106
E 20 32 92
E 20 33 100
E 20 34 95
E 20 35 104
E 20 36 94
E 20 37 90
E 20 38 98
E 20 39 101
E 20 40 92
E 20 41 103
E 20 42 92
E 20 43 120
E 20 44 93
E 20 45 100
E 20 46 98
E 20 47 95
E 20 48 98
E 20 49 102
E 20 50 110
E 20 51 103
E 20 52 97
E 20 53 106
E 20 54 102
E 20 55 98
E 20 56 94
E 20 57 104
E 20 58 104
E 20 59 103
E 20 60 104
E 20 61 98
E 20 62 90
E 20 63 99
E 20 64 100
E 20 65 100
E 20 66 100
E 20 67 109
E 20 68 98
E 20 69 101
E 20 70 102
E 20 71 102
E 20 72 101
E 20 73 102
E 20 74 102
E 20 75 95
E 20 76 99
E 20 77 97
E 20 78 95
E 20 79 96
E 20 80 106
E 21 22 105
E 21 23 102
E 21 24 104
E 21 25 100
E 21 26 97
E 21 27 97
E 21 28 103
E 21 29 99
E 21 30 96
E 21 31 103
E 21 32 106
E 21 33 104
E 21 34 106
E 21 35 98
E 21 36 105
E 21 37 93
E 21 38 105
E 21 39 103
E 21 40 105
E 21 41 106
E 21 42 100
E 21 43 89
E 21 44 105
E 21 45 104
E 21 46 105
E 21 47 102
E 21 48 96
E 21 49 102
E 21 50 102
E 21 51 99
E 21 52 91
E 21 53 96
E 21 54 98
E 21 55 97
E 21 56 96
E 21 57 106
E 21 58 106
E 21 59 102
E 21 60 101
E 21 61 89
E 21 62 97
E 21 63 94
E 21 64 95
E 21 65 97
E 21 66 99
E 21 67 98
E 21 68 95
E 21 69 105
E 21 70 93
E 21 71 103
E 21 72 99
E 21 73 102
E 21 74 108
E 21 75 102
E 21 76 103
E 21 77 103
E 21 78 104
E 21 79 102
E 21 80 103
E 22 23 95
E 22 24 93
E 22 25 98
E 22 26 102
E 22 27 98
E 22 28 94
E 22 29 98
E 22 30 110
E 22 31 97
E 22 32 97
E 22 33 102
E 22 34 102
E 22 35 109
E 22 36 104
E 22 37 102
E 22 38 101
E 22 39 108
E 22 40 93
E 22 41 104
E 22 42 111
E 22 43 99
E 22 44 107
E 22 45 98
E 22 46 99
E 22 47 101
E 22 48 93
E 22 49 99
E 22 50 104
E 22 51 99
E 22 52 99
E 22 53 104
E 22 54 100
E 22 55 98
E 22 56 102
E 22 57 100
E 22 58 92
E 22 59 105
E 22 60 96
E 22 61 102
E 22 62 102
E 22 63 96
E 22 64 92
E 22 65 96
E 22 66 98
E 22 67 95
E 22 68 99
E 22 69 108
E 22 70 103
E 22 71 91
E 22 72 91
E 22 73 100
E 22 74 104
E 22 75 104
E 22 76 96
E 22 77 93
E 22 78 97
E 22 79 99
E 22 80 103
E 23 24 106
E 23 25 95
E 23 26 103
E 23 27 93
E 23 28 102
E 23 29 101
E 23 30 99
E 23 31 96
E 23 32 94
E 23 33 93
E 23 34 106
E 23 35 96
E 23 36 101
E 23 37 95
E 23 38 110
E 23 39 105
E 23 40 97
E 23 41 96
E 23 42 99
E 23 43 99
E 23 44 93
E 23 45 97
E 23 46 93
E 23 47 99
E 23 48 93
E 23 49 100
E 23 50 111
E 23 51 110
E 23 52 106
E 23 53 98
E 23 54 98
E 23 55 103
E 23 56 103
E 23 57 92
E 23 58 92
E 23 59 100
E 23 60 96
E 23 61 95
E 23 62 102
E 23 63 103
E 23 64 96
E 23 65 99
E 23 66 95
E 23 67 106
E 23 68 99
E 23 69 100
E 23 70 101
E 23 71 103
E 23 72 104
E 23 73 96
E 23 74 92
E 23 75 106
E 23 76 103
E 23 77 98
E 23 78 95
E 23 79 108
E 23 80 112
E 24 25 95
E 24 26 105
E 24 27 108
E 24 28 100
E 24 29 97
E 24 30 103
E 24 31 96
E 24 32 113
E 24 33 99
E 24 34 94
E 24 35 95
E 24 36 102
E 24 37 97
E 24 38 100
E 24 39 100
E 24 40 109
E 24 41 96
E 24 42 101
E 24 43 102
E 24 44 106
E 24 45 95
E 24 46 98
E 24 47 108
E 24 48 107
E 24 49 98
E 24 50 96
E 24 51 98
E 24 52 91
E 24 53 100
E 24 54 97
E 24 55 93
E 24 56 98
E 24 57 104
E 24 58 98
E 24 59 97
E 24 60 100
E 24 61 109
E 24 62 97
E 24 63 101
E 24 64 104
E 24 65 107
E 24 66 102
E 24 67 110
E 24 68 97
E 24 69 103
E 24 70 106
E 24 71 98
E 24 72 96
E 24 73 96
E 24 74 106
E 24 75 106
E 24 76 105
E 24 77 104
E 24 78 103
E 24 79 100
E 24 80 101
E 25 26 95
E 25 27 107
E 25 28 99
E 25 29 104
E 25 30 102
E 25 31 106
E 25 32 102
E 25 33 97
E 25 34 103
E 25 35 98
E 25 36 110
E 25 37 104
E 25 38 103
E 25 39 94
E 25 40 99
E 25 41 101
E 25 42 97
E 25 43 104
E 25 44 96
E 25 45 104
E 25 46 92
E 25 47 100
E 25 48 99
E 25 49 99
E 25 50 109
E 25 51 102
E 25 52 103
E 25 53 104
E 25 54 102
E 25 55 102
E 25 56 97
E 25 57 102
E 25 58 99
E 25 59 105
E 25 60 98
E 25 61 99
E 25 62 98
E 25 63 106
E 25 64 92
E 25 65 93
E 25 66 102
E 25 67 100
E 25 68 97
E 25 69 107
E 25 70 102
E 25 71 108
E 25 72 95
E 25 73 97
E 25 74 103
E 25 75 101
E 25 76 101
E 25 77 101
E 25 78 107
E 25 79 94
E 25 80 99
E 26 27 103
E 26 28 107
E 26 29 105
E 26 30 105
E 26 31 104
E 26 32 109
E 26 33 98
E 26 34 97
E 26 35 109
E 26 36 101
E 26 37 94
E 26 38 101
E 26 39 91
E 26 40 103
E 26 41 104
E 26 42 96
E 26 43 92
E 26 44 98
E 26 45 97
E 26 46 98
E 26 47 108
E 26 48 107
E 26 49 97
E 26 50 93
E 26 51 98
E 26 52 93
E 26 53 103
E 26 54 105
E 26 55 103
E 26 56 101
E 26 57 100
E 26 58 87
E 26 59 106
E 26 60 107
E 26 61 99
E 26 62 92
E 26 63 99
E 26 64 101
E 26 65 104
E 26 66 100
E 26 67 103
E 26 68 98
E 26 69 99
E 26 70 97
E 26 71 93
E 26 72 100
E 26 73 97
E 26 74 99
E 26 75 103
E 26 76 94
E 26 77 102
E 26 78 103
E 26 79 101
E 26 80 90
E 27 28 99
E 27 29 100
E 27 30 98
E 27 31 99
E 27 32 91
E 27 33 103
E 27 34 103
E 27 35 101
E 27 36 108
E 27 37 104
E 27 38 95
E 27 39 105
E 27 40 96
E 27 41 94
E 27 42 93
E 27 43 99
E 27 44 99
E 27 45 101
E 27 46 104
E 27 47 107
E 27 48 103
E 27 49 108
E 27 50 96
E 27 51 88
E 27 52 106
E 27 53 104
E 27 54 104
E 27 55 94
E 27 56 99
E 27 57 98
E 27 58 100
E 27 59 95
E 27 60 103
E 27 61 98
E 27 62 103
E 27 63 103
E 27 64 99
E 27 65 94
E 27 66 104
E 27 67 94
E 27 68 101
E 27 69 97
E 27 70 98
E 27 71 104
E 27 72 99
E 27 73 96
E 27 74 95
E 27 75 98
E 27 76 104
E 27 77 94
E 27 78 95
E 27 79 96
E 27 80 97
E 28 29 100
E 28 30 100
E 28 31 99
E 28 32 97
E 28 33 100
E 28 34 106
E 28 35 100
E 28 36 98
E 28 37 95
E 28 38 95
E 28 39 103
E 28 40 100
E 28 41 100
E 28 42 93
E 28 43 96
E 28 44 96
E 28 45 97
E 28 46 96
E 28 47 95
E 28 48 96
E 28 49 108
E 28 50 97
E 28 51 101
E 28 52 98
E 28 53 106
E 28 54 103
E 28 55 92
E 28 56 100
E 28 57 102
E 28 58 99
E 28 59 94
E 28 60 95
E 28 61 95
E 28 62 105
E 28 63 103
E 28 64 90
E 28 65 104
E 28 66 91
E 28 67 95
E 28 68 101
E 28 69 99
E 28 70 96
E 28 71 106
E 28 72 98
E 28 73 99
E 28 74 99
E 28 75 89
E 28 76 97
E 28 77 99
E 28 78 107
E 28 79 106
E 28 80 96
E 29 30 106
E 29 31 96
E 29 32 93
E 29 33 97
E 29 34 101
E 29 35 108
E 29 36 110
E 29 37 102
E 29 38 90
E 29 39 93
E 29 40 103
E 29 41 98
E 29 42 90
E 29 43 94
E 29 44 95
E 29 45 95
E 29 46 96
E 29 47 89
E 29 48 95
E 29 49 103
E 29 50 103
E 29 51 93
E 29 52 97
E 29 53 99
E 29 54 98
E 29 55 99
E 29 56 92
E 29 57 99
E 29 58 96
E 29 59 90
E 29 60 103
E 29 61 106
E 29 62 100
E 29 63 109
E 29 64 103
E 29 65 106
E 29 66 95
E 29 67 99
E 29 68 92
E 29 69 98
E 29 70 89
E 29 71 99
E 29 72 96
E 29 73 100
E 29 74 98
E 29 75 100
E 29 76 101
E 29 77 103
E 29 78 99
E 29 79 101
E 29 80 97
E 30 31 103
E 30 32 97
E 30 33 92
E 30 34 98
E 30 35 106
E 30 36 98
E 30 37 99
E 30 38 105
E 30 39 100
E 30 40 93
E 30 41 102
E 30 42 87
E 30 43 100
E 30 44 95
E 30 45 97
E 30 46 99
E 30 47 107
E 30 48 95
E 30 49 94
E 30 50 103
E 30 51 91
E 30 52 97
E 30 53 105
E 30 54 94
E 30 55 94
E 30 56 99
E 30 57 105
E 30 58 96
E 30 59 103
E 30 60 98
E 30 61 108
E 30 62 103
E 30 63 107
E 30 64 93
E 30 65 97
E 30 66 98
E 30 67 103
E 30 68 94
E 30 69 98
E 30 70 96
E 30 71 98
E 30 72 108
E 30 73 92
E 30 74 103
E 30 75 92
E 30 76 99
E 30 77 97
E 30 78 99
E 30 79 93
E 30 80 101
E 31 32 101
E 31 33 94
E 31 34 95
E 31 35 97
E 31 36 92
E 31 37 100
E 31 38 109
E 31 39 98
E 31 40 97
E 31 41 101
E 31 42 99
E 31 43 111
E 31 44 98
E 31 45 100
E 31 46 89
E 31 47 101
E 31 48 96
E 31 49 105
E 31 50 105
E 31 51 105
E 31 52 106
E 31 53 98
E 31 54 103
E 31 55 107
E 31 56 96
E 31 57 104
E 31 58 115
E 31 59 105
E 31 60 94
E 31 61 109
E 31 62 101
E 31 63 102
E 31 64 99
E 31 65 102
E 31 66 100
E 31 67 96
E 31 68 103
E 31 69 98
E 31 70 101
E 31 71 109
E 31 72 93
E 31 73 96
E 31 74 98
E 31 75 98
E 31 76 96
E 31 77 102
E 31 78 100
E 31 79 105
E 31 80 104
E 32 33 98
E 32 34 106
E 32 35 105
E 32 36 94
E 32 37 106
E 32 38 101
E 32 39 100
E 32 40 101
E 32 41 105
E 32 42 103
E 32 43 105
E 32 44 92
E 32 45 98
E 32 46 96
E 32 47 99
E 32 48 98
E 32 49 102
E 32 50 100
E 32 51 96
E 32 52 105
E 32 53 97
E 32 54 102
E 32 55 96
E 32 56 97
E 32 57 96
E 32 58 93
E 32 59 93
E 32 60 92
E 32 61 100
E 32 62 106
E 32 63 95
E 32 64 97
E 32 65 99
E 32 66 95
E 32 67 108
E 32 68 100
E 32 69 92
E 32 70 95
E 32 71 99
E 32 72 93
E 32 73 91
E 32 74 92
E 32 75 86
E 32 76 93
E 32 77 101
E 32 78 100
E 32 79 104
E 32 80 102
E 33 34 89
E 33 35 100
E 33 36 112
E 33 37 98
E 33 38 103
E 33 39 106
E 33 40 97
E 33 41 92
E 33 42 96
E 33 43 97
E 33 44 100
E 33 45 94
E 33 46 108
E 33 47 104
E 33 48 100
E 33 49 103
E 33 50 102
E 33 51 98
E 33 52 97
E 33 53 104
E 33 54 100
E 33 55 93
E 33 56 102
E 33 57 93
E 33 58 107
E 33 59 102
E 33 60 104
E 33 61 96
E 33 62 104
E 33 63 105
E 33 64 99
E 33 65 90
E 33 66 95
E 33 67 90
E 33 68 100
E 33 69 99
E 33 70 100
E 33 71 101
E 33 72 90
E 33 73 104
E 33 74 87
E 33 75 99
E 33 76 103
E 33 77 95
E 33 78 98
E 33 79 111
E 33 80 101
E 34 35 101
E 34 36 105
E 34 37 95
E 34 38 92
E 34 39 103
E 34 40 94
E 34 41 90
E 34 42 113
E 34 43 95
E 34 44 97
E 34 45 97
E 34 46 97
E 34 47 109
E 34 48 102
E 34 49 91
E 34 50 89
E 34 51 101
E 34 52 101
E 34 53 97
E 34 54 101
E 34 55 100
E 34 56 95
E 34 57 103
E 34 58 102
E 34 59 102
E 34 60 103
E 34 61 100
E 34 62 101
E 34 63 104
E 34 64 99
E 34 65 102
E 34 66 95
E 34 67 91
E 34 68 107
E 34 69 95
E 34 70 95
E 34 71 101
E 34 72 104
E 34 73 103
E 34 74 104
E 34 75 100
E 34 76 99
E 34 77 93
E 34 78 101
E 34 79 96
E 34 80 107
E 35 36 98
E 35 37 102
E 35 38 102
E 35 39 101
E 35 40 93
E 35 41 104
E 35 42 101
E 35 43 100
E 35 44 99
E 35 45 100
E 35 46 102
E 35 47 101
E 35 48 99
E 35 49 96
E 35 50 94
E 35 51 98
E 35 52 94
E 35 53 95
E 35 54 102
E 35 55 96
E 35 56 98
E 35 57 104
E 35 58 103
E 35 59 95
E 35 60 105
E 35 61 98
E 35 62 98
E 35 63 94
E 35 64 95
E 35 65 103
E 35 66 106
E 35 67 107
E 35 68 99
E 35 69 103
E 35 70 95
E 35 71 99
E 35 72 104
E 35 73 109
E 35 74 98
E 35 75 100
E 35 76 102
E 35 77 97
E 35 78 94
E 35 79 100
E 35 80 105
E 36 37 102
E 36 38 101
E 36 39 96
E 36 40 102
E 36 41 100
E 36 42 103
E 36 43 97
E 36 44 105
E 36 45 97
E 36 46 106
E 36 47 96
E 36 48 102
E 36 49 100
E 36 50 94
E 36 51 109
E 36 52 109
E 36 53 107
E 36 54 99
E 36 55 101
E 36 56 101
E 36 57 100
E 36 58 106
E 36 59 101
E 36 60 102
E 36 61 96
E 36 62 107
E 36 63 94
E 36 64 103
E 36 65 94
E 36 66 102
E 36 67 95
E 36 68 100
E 36 69 102
E 36 70 103
E 36 71 98
E 36 72 100
E 36 73 92
E 36 74 105
E 36 75 97
E 36 76 101
E 36 77 107
E 36 78 97
E 36 79 88
E 36 80 94
E 37 38 102
E 37 39 93
E 37 40 96
E 37 41 100
E 37 42 98
E 37 43 108
E 37 44 97
E 37 45 102
E 37 46 100
E 37 47 100
E 37 48 101
E 37 49 91
E 37 50 103
E 37 51 90
E 37 52 102
E 37 53 91
E 37 54 99
E 37 55 99
E 37 56 96
E 37 57 103
E 37 58 96
E 37 59 96
E 37 60 99
E 37 61 107
E 37 62 90
E 37 63 102
E 37 64 100
E 37 65 86
E 37 66 96
E 37 67 104
E 37 68 94
E 37 69 100
E 37 70 98
E 37 71 98
E 37 72 98
E 37 73 100
E 37 74 87
E 37 75 100
E 37 76 96
E 37 77 98
E 37 78 99
E 37 79 103
E 37 80 92
E 38 39 97
E 38 40 102
E 38 41 98
E 38 42 104
E 38 43 100
E 38 44 92
E 38 45 101
E 38 46 95
E 38 47 97
E 38 48 93
E 38 49 107
E 38 50 104
E 38 51 98
E 38 52 100
E 38 53 106
E 38 54 92
E 38 55 110
E 38 56 95
E 38 57 104
E 38 58 99
E 38 59 111
E 38 60 93
E 38 61 93
E 38 62 104
E 38 63 94
E 38 64 106
E 38 65 106
E 38 66 102
E 38 67 105
E 38 68 96
E 38 69 99
E 38 70 96
E 38 71 101
E 38 72 100
E 38 73 98
E 38 74 99
E 38 75 98
E 38 76 92
E 38 77 101
E 38 78 96
E 38 79 91
E 38 80 96
E 39 40 100
E 39 41 102
E 39 42 101
E 39 43 89
E 39 44 103
E 39 45 97
E 39 46 94
E 39 47 109
E 39 48 103
E 39 49 98
E 39 50 101
E 39 51 107
E 39 52 96
E 39 53 99
E 39 54 104
E 39 55 98
E 39 56 92
E 39 57 102
E 39 58 102
E 39 59 108
E 39 60 108
E 39 61 94
E 39 62 100
E 39 63 101
E 39 64 99
E 39 65 105
E 39 66 104
E 39 67 94
E 39 68 93
E 39 69 97
E 39 70 100
E 39 71 100
E 39 72 102
E 39 73 98
E 39 74 101
E 39 75 99
E 39 76 99
E 39 77 99
E 39 78 103
E 39 79 94
E 39 80 102
E 40 41 95
E 40 42 100
E 40 43 94
E 40 44 99
E 40 45 91
E 40 46 99
E 40 47 100
E 40 48 105
E 40 49 103
E 40 50 107
E 40 51 96
E 40 52 103
E 40 53 103
E 40 54 97
E 40 55 103
E 40 56 93
E 40 57 109
E 40 58 103
E 40 59 101
E 40 60 98
E 40 61 96
E 40 62 99
E 40 63 100
E 40 64 91
E 40 65 99
E 40 66 107
E 40 67 99
E 40 68 99
E 40 69 100
E 40 70 95
E 40 71 100
E 40 72 99
E 40 73 103
E 40 74 94
E 40 75 107
E 40 76 102
E 40 77 96
E 40 78 97
E 40 79 108
E 40 80 110
E 41 42 103
E 41 43 105
E 41 44 101
E 41 45 99
E 41 46 99
E 41 47 97
E 41 48 103
E 41 49 102
E 41 50 114
E 41 51 97
E 41 52 91
E 41 53 96
E 41 54 90
E 41 55 102
E 41 56 105
E 41 57 105
E 41 58 92
E 41 59 94
E 41 60 90
E 41 61 105
E 41 62 95
E 41 63 107
E 41 64 106
E 41 65 97
E 41 66 98
E 41 67 102
E 41 68 101
E 41 69 99
E 41 70 95
E 41 71 95
E 41 72 102
E 41 73 102
E 41 74 96
E 41 75 113
E 41 76 97
E 41 77 102
E 41 78 96
E 41 79 109
E 41 80 104
E 42 43 92
E 42 44 95
E 42 45 101
E 42 46 94
E 42 47 100
E 42 48 94
E 42 49 103
E 42 50 97
E 42 51 90
E 42 52 105
E 42 53 112
E 42 54 106
E 42 55 97
E 42 56 102
E 42 57 100
E 42 58 94
E 42 59 96
E 42 60 99
E 42 61 100
E 42 62 101
E 42 63 98
E 42 64 104
E 42 65 101
E 42 66 99
E 42 67 98
E 42 68 96
E 42 69 104
E 42 70 98
E 42 71 98
E 42 72 97
E 42 73 101
E 42 74 102
E 42 75 96
E 42 76 101
E 42 77 99
E 42 78 101
E 42 79 102
E 42 80 98
E 43 44 101
E 43 45 103
E 43 46 98
E 43 47 103
E 43 48 97
E 43 49 92
E 43 50 100
E 43 51 105
E 43 52 96
E 43 53 98
E 43 54 104
E 43 55 101
E 43 56 99
E 43 57 92
E 43 58 96
E 43 59 90
E 43 60 103
E 43 61 98
E 43 62 104
E 43 63 88
E 43 64 99
E 43 65 98
E 43 66 102
E 43 67 108
E 43 68 104
E 43 69 95
E 43 70 100
E 43 71 94
E 43 72 106
E 43 73 98
E 43 74 90
E 43 75 98
E 43 76 100
E 43 77 101
E 43 78 105
E 43 79 100
E 43 80 98
E 44 45 91
E 44 46 104
E 44 47 96
E 44 48 100
E 44 49 100
E 44 50 107
E 44 51 99
E 44 52 103
E 44 53 108
E 44 54 96
E 44 55 99
E 44 56 101
E 44 57 99
E 44 58 95
E 44 59 89
E 44 60 104
E 44 61 98
E 44 62 93
E 44 63 108
E 44 64 104
E 44 65 93
E 44 66 100
E 44 67 100
E 44 68 98
E 44 69 101
E 44 70 106
E 44 71 103
E 44 72 105
E 44 73 97
E 44 74 101
E 44 75 106
E 44 76 103
E 44 77 90
E 44 78 103
E 44 79 96
E 44 80 107
E 45 46 100
E 45 47 99
E 45 48 100
E 45 49 98
E 45 50 102
E 45 51 94
E 45 52 95
E 45 53 105
E 45 54 104
E 45 55 94
E 45 56 99
E 45 57 104
E 45 58 100
E 45 59 98
E 45 60 95
E 45 61 105
E 45 62 103
E 45 63 101
E 45 64 94
E 45 65 101
E 45 66 100
E 45 67 108
E 45 68 101
E 45 69 105
E 45 70 98
E 45 71 112
E 45 72 108
E 45 73 105
E 45 74 97
E 45 75 97
E 45 76 103
E 45 77 102
E 45 78 99
E 45 79 107
E 45 80 100
E 46 47 100
E 46 48 109
E 46 49 96
E 46 50 103
E 46 51 105
E 46 52 102
E 46 53 105
E 46 54 99
E 46 55 105
E 46 56 113
E 46 57 92
E 46 58 98
E 46 59 89
E 46 60 108
E 46 61 94
E 46 62 92
E 46 63 108
E 46 64 103
E 46 65 106
E 46 66 99
E 46 67 93
E 46 68 102
E 46 69 94
E 46 70 107
E 46 71 107
E 46 72 105
E 46 73 104
E 46 74 101
E 46 75 103
E 46 76 95
E 46 77 94
E 46 78 100
E 46 79 101
E 46 80 104
E 47 48 96
E 47 49 111
E 47 50 96
E 47 51 97
E 47 52 93
E 47 53 104
E 47 54 100
E 47 55 97
E 47 56 102
E 47 57 97
E 47 58 101
E 47 59 91
E 47 60 100
E 47 61 101
E 47 62 89
E 47 63 102
E 47 64 103
E 47 65 101
E 47 66 109
E 47 67 97
E 47 68 91
E 47 69 95
E 47 70 108
E 47 71 99
E 47 72 100
E 47 73 99
E 47 74 104
E 47 75 102
E 47 76 94
E 47 77 100
E 47 78 98
E 47 79 103
E 47 80 97
E 48 49 108
E 48 50 106
E 48 51 97
E 48 52 97
E 48 53 103
E 48 54 100
E 48 55 113
E 48 56 97
E 48 57 96
E 48 58 100
E 48 59 94
E 48 60 105
E 48 61 108
E 48 62 100
E 48 63 97
E 48 64 101
E 48 65 94
E 48 66 97
E 48 67 99
E 48 68 102
E 48 69 107
E 48 70 103
E 48 71 91
E 48 72 103
E 48 73 98
E 48 74 103
E 48 75 108
E 48 76 96
E 48 77 98
E 48 78 102
E 48 79 90
E 48 80 102
E 49 50 93
E 49 51 106
E 49 52 97
E 49 53 95
E 49 54 100
E 49 55 93
E 49 56 104
E 49 57 100
E 49 58 101
E 49 59 103
E 49 60 99
E 49 61 100
E 49 62 102
E 49 63 96
E 49 64 107
E 49 65 106
E 49 66 96
E 49 67 103
E 49 68 100
E 49 69 97
E 49 70 100
E 49 71 101
E 49 72 101
E 49 73 106
E 49 74 93
E 49 75 97
E 49 76 101
E 49 77 90
E 49 78 101
E 49 79 101
E 49 80 100
E 50 51 102
E 50 52 115
E 50 53 97
E 50 54 99
E 50 55 104
E 50 56 96
E 50 57 102
E 50 58 101
E 50 59 98
E 50 60 100
E 50 61 95
E 50 62 103
E 50 63 101
E 50 64 96
E 50 65 95
E 50 66 105
E 50 67 96
E 50 68 93
E 50 69 100
E 50 70 100
E 50 71 106
E 50 72 98
E 50 73 106
E 50 74 108
E 50 75 104
E 50 76 100
E 50 77 88
E 50 78 97
E 50 79 104
E 50 80 95
E 51 52 100
E 51 53 99
E 51 54 103
E 51 55 103
E 51 56 106
E 51 57 101
E 51 58 99
E 51 59 100
E 51 60 97
E 51 61 98
E 51 62 86
E 51 63 93
E 51 64 100
E 51 65 104
E 51 66 94
E 51 67 95
E 51 68 104
E 51 69 98
E 51 70 92
E 51 71 105
E 51 72 95
E 51 73 105
E 51 74 98
E 51 75 90
E 51 76 95
E 51 77 109
E 51 78 105
E 51 79 104
E 51 80 92
E 52 53 96
E 52 54 99
E 52 55 107
E 52 56 93
E 52 57 95
E 52 58 96
E 52 59 101
E 52 60 97
E 52 61 102
E 52 62 104
E 52 63 107
E 52 64 97
E 52 65 94
E 52 66 97
E 52 67 93
E 52 68 109
E 52 69 102
E 52 70 98
E 52 71 95
E 52 72 96
E 52 73 91
E 52 74 98
E 52 75 99
E 52 76 102
E 52 77 95
E 52 78 103
E 52 79 96
E 52 80 101
E 53 54 102
E 53 55 96
E 53 56 98
E 53 57 105
E 53 58 95
E 53 59 102
E 53 60 100
E 53 61 99
E 53 62 97
E 53 63 97
E 53 64 95
E 53 65 95
E 53 66 111
E 53 67 91
E 53 68 91
E 53 69 104
E 53 70 105
E 53 71 107
E 53 72 97
E 53 73 100
E 53 74 102
E 53 75 109
E 53 76 99
E 53 77 103
E 53 78 104
E 53 79 105
E 53 80 105
E 54 55 99
E 54 56 109
E 54 57 107
E 54 58 99
E 54 59 101
E 54 60 104
E 54 61 98
E 54 62 95
E 54 63 97
E 54 64 105
E 54 65 101
E 54 66 93
E 54 67 100
E 54 68 98
E 54 69 101
E 54 70 99
E 54 71 97
E 54 72 103
E 54 73 104
E 54 74 92
E 54 75 98
E 54 76 103
E 54 77 93
E 54 78 105
E 54 79 113
E 54 80 102
E 55 56 106
E 55 57 97
E 55 58 96
E 55 59 89
E 55 60 93
E 55 61 105
E 55 62 110
E 55 63 104
E 55 64 96
E 55 65 109
E 55 66 98
E 55 67 89
E 55 68 109
E 55 69 107
E 55 70 102
E 55 71 102
E 55 72 101
E 55 73 97
E 55 74 108
E 55 75 97
E 55 76 105
E 55 77 94
E 55 78 97
E 55 79 95
E 55 80 98
E 56 57 100
E 56 58 106
E 56 59 101
E 56 60 92
E 56 61 98
E 56 62 110
E 56 63 105
E 56 64 108
E 56 65 101
E 56 66 95
E 56 67 104
E 56 68 99
E 56 69 107
E 56 70 102
E 56 71 102
E 56 72 100
E 56 73 98
E 56 74 98
E 56 75 96
E 56 76 96
E 56 77 106
E 56 78 102
E 56 79 105
E 56 80 107
E 57 58 98
E 57 59 105
E 57 60 98
E 57 61 94
E 57 62 95
E 57 63 103
E 57 64 97
E 57 65 101
E 57 66 107
E 57 67 96
E 57 68 90
E 57 69 101
E 57 70 102
E 57 71 99
E 57 72 98
E 57 73 98
E 57 74 101
E 57 75 104
E 57 76 104
E 57 77 102
E 57 78 99
E 57 79 97
E 57 80 99
E 58 59 94
E 58 60 104
E 58 61 98
E 58 62 99
E 58 63 110
E 58 64 101
E 58 65 100
E 58 66 102
E 58 67 98
E 58 68 110
E 58 69 102
E 58 70 100
E 58 71 102
E 58 72 94
E 58 73 99
E 58 74 105
E 58 75 93
E 58 76 95
E 58 77 105
E 58 78 94
E 58 79 95
E 58 80 96
E 59 60 99
E 59 61 102
E 59 62 114
E 59 63 95
E 59 64 105
E 59 65 109
E 59 66 95
E 59 67 102
E 59 68 94
E 59 69 95
E 59 70 99
E 59 71 98
E 59 72 108
E 59 73 102
E 59 74 106
E 59 75 110
E 59 76 98
E 59 77 97
E 59 78 102
E 59 79 101
E 59 80 97
E 60 61 102
E 60 62 111
E 60 63 91
E 60 64 94
E 60 65 102
E 60 66 98
E 60 67 90
E 60 68 98
E 60 69 98
E 60 70 101
E 60 71 95
E 60 72 100
E 60 73 103
E 60 74 98
E 60 75 98
E 60 76 98
E 60 77 94
E 60 78 97
E 60 79 95
E 60 80 96
E 61 62 105
E 61 63 102
E 61 64 107
E 61 65 101
E 61 66 93
E 61 67 97
E 61 68 92
E 61 69 97
E 61 70 104
E 61 71 93
E 61 72 102
E 61 73 97
E 61 74 95
E 61 75 93
E 61 76 105
E 61 77 104
E 61 78 95
E 61 79 105
E 61 80 100
E 62 63 98
E 62 64 91
E 62 65 102
E 62 66 95
E 62 67 94
E 62 68 89
E 62 69 108
E 62 70 98
E 62 71 96
E 62 72 100
E 62 73 101
E 62 74 97
E 62 75 96
E 62 76 97
E 62 77 93
E 62 78 106
E 62 79 99
E 62 80 107
E 63 64 101
E 63 65 101
E 63 66 102
E 63 67 107
E 63 68 104
E 63 69 91
E 63 70 101
E 63 71 99
E 63 72 92
E 63 73 107
E 63 74 100
E 63 75 89
E 63 76 100
E 63 77 99
E 63 78 107
E 63 79 107
E 63 80 98
E 64 65 103
E 64 66 98
E 64 67 92
E 64 68 109
E 64 69 106
E 64 70 104
E 64 71 100
E 64 72 99
E 64 73 96
E 64 74 100
E 64 75 106
E 64 76 98
E 64 77 96
E 64 78 99
E 64 79 91
E 64 80 99
E 65 66 99
E 65 67 102
E 65 68 107
E 65 69 103
E 65 70 97
E 65 71 103
E 65 72 100
E 65 73 103
E 65 74 98
E 65 75 101
E 65 76 99
E 65 77 101
E 65 78 94
E 65 79 99
E 65 80 94
E 66 67 99
E 66 68 101
E 66 69 104
E 66 70 94
E 66 71 102
E 66 72 98
E 66 73 99
E 66 74 103
E 66 75 102
E 66 76 107
E 66 77 100
E 66 78 97
E 66 79 96
E 66 80 96
E 67 68 91
E 67 69 98
E 67 70 91
E 67 71 99
E 67 72 105
E 67 73 98
E 67 74 107
E 67 75 99
E 67 76 95
E 67 77 103
E 67 78 111
E 67 79 97
E 67 80 106
E 68 69 96
E 68 70 105
E 68 71 100
E 68 72 102
E 68 73 106
E 68 74 99
E 68 75 100
E 68 76 101
E 68 77 103
E 68 78 105
E 68 79 107
E 68 80 106
E 69 70 97
E 69 71 109
E 69 72 105
E 69 73 100
E 69 74 108
E 69 75 96
E 69 76 103
E 69 77 101
E 69 78 97
E 69 79 86
E 69 80 94
E 70 71 106
E 70 72 95
E 70 73 93
E 70 74 97
E 70 75 103
E 70 76 98
E 70 77 102
E 70 78 109
E 70 79 97
E 70 80 96
E 71 72 99
E 71 73 96
E 71 74 97
E 71 75 105
E 71 76 105
E 71 77 100
E 71 78 110
E 71 79 100
E 71 80 91
E 72 73 99
E 72 74 107
E 72 75 101
E 72 76 100
E 72 77 102
E 72 78 90
E 72 79 91
E 72 80 95
E 73 74 98
E 73 75 102
E 73 76 100
E 73 77 87
E 73 78 99
E 73 79 109
E 73 80 100
E 74 75 104
E 74 76 98
E 74 77 100
E 74 78 100
E 74 79 95
E 74 80 99
E 75 76 106
E 75 77 99
E 75 78 109
E 75 79 98
E 75 80 99
E 76 77 100
E 76 78 97
E 76 79 98
E 76 80 108
E 77 78 100
E 77 79 92
E 77 80 91
E 78 79 105
E 78 80 98
E 79 80 100
END

SECTION Terminals
Terminals 6
T 1
T 2
T 3
T 4
T 5
T 6
END

EOF
